NAME : ./TSPLIB/a280.tsp.optbc.tour
COMMENT : Optimal tour for a280.tsp
TYPE : TOUR
DIMENSION : 280
TOUR_SECTION
248
278
277
4
5
6
276
275
9
7
8
10
11
12
272
273
274
261
260
259
258
256
255
252
209
208
253
254
257
262
263
264
265
266
140
141
139
138
137
267
268
136
135
269
270
134
133
18
17
16
271
15
13
14
24
23
25
22
26
27
28
29
128
21
20
19
132
131
130
129
127
126
124
125
30
31
32
33
34
43
42
41
40
39
35
36
38
37
50
51
52
49
48
53
54
47
46
55
45
56
57
44
59
58
68
69
67
65
64
63
62
60
61
118
117
115
114
111
110
112
88
82
89
81
80
79
76
83
84
87
113
116
86
85
66
70
71
72
73
74
75
77
78
95
96
97
98
94
93
91
92
99
100
101
169
102
103
104
90
109
108
105
107
174
173
106
170
171
172
168
167
166
165
164
163
187
188
189
190
191
192
193
186
185
184
183
182
162
161
175
160
159
158
157
119
120
121
122
123
154
155
153
156
152
151
178
177
176
181
180
179
150
149
148
147
146
142
143
145
144
203
204
205
206
207
210
212
211
214
213
216
215
218
217
202
201
200
199
198
197
194
195
196
221
220
219
222
223
224
225
226
227
228
234
235
236
233
229
230
251
231
232
237
238
239
246
245
240
241
244
243
242
2
1
280
3
279
247
250
249
